&BANDS
 outdir  = './tmp/'
 prefix  = 'Si'
 filband = 'Si.bands'
/
