&CONTROL
  calculation = 'nscf',
  prefix      = 'Si',
  outdir      = './tmp',
  pseudo_dir  = './'
/
&SYSTEM
  ibrav     = 2, 
  celldm(1) = 10.26,
  nat       = 2, 
  ntyp      = 1,
  ecutwfc   = 50.0
  occupations = 'tetrahedra'
/
&ELECTRONS
  conv_thr = 1.0d-8
/
ATOMIC_SPECIES
  Si 28.0855 Si.pz-vbc.UPF
ATOMIC_POSITIONS (alat)
  Si 0.00 0.00 0.00
  Si 0.25 0.25 0.25

K_POINTS automatic
24 24 24 1 1 1
