&CONTROL
  calculation = 'bands',
  prefix      = 'Si',
  outdir      = './tmp',
  pseudo_dir  = './'
/
&SYSTEM
  ibrav     = 2
  celldm(1) = 10.26,
  nat       = 2, 
  ntyp      = 1,
  ecutwfc   = 50.0, 
  nbnd      = 8
/
&ELECTRONS
  conv_thr = 1.0d-8
/
ATOMIC_SPECIES
  Si 28.0855 Si.pz-vbc.UPF
ATOMIC_POSITIONS (alat)
  Si 0.00 0.00 0.00
  Si 0.25 0.25 0.25

K_POINTS crystal_b
   5
   0.500  0.500  0.500  10
   0.000  0.000  0.000  10
   0.500  0.000  0.500  10
   0.625  0.250  0.625  10
   0.000  0.000  0.000  10
